objective value:                                 -342
t_x43                                               1 	(obj:-100)
t_x125                                              1 	(obj:-100)
t_x164                                              1 	(obj:-100)
t_x170                                              1 	(obj:-100)
t_y166_170                                          1 	(obj:1)
t_y86_170                                           1 	(obj:1)
t_y139_164                                          1 	(obj:1)
t_y20_125                                           1 	(obj:1)
t_y37_164                                           1 	(obj:1)
t_y170_192                                          1 	(obj:1)
t_y43_82                                            1 	(obj:1)
t_y111_170                                          1 	(obj:1)
t_y43_75                                            1 	(obj:1)
t_y87_170                                           1 	(obj:1)
t_y72_164                                           1 	(obj:1)
t_y170_189                                          1 	(obj:1)
t_y112_164                                          1 	(obj:1)
t_y125_185                                          1 	(obj:1)
t_y125_178                                          1 	(obj:1)
t_y25_170                                           1 	(obj:1)
t_y43_183                                           1 	(obj:1)
t_y28_125                                           1 	(obj:1)
t_y43_61                                            1 	(obj:1)
t_y74_170                                           1 	(obj:1)
t_y97_164                                           1 	(obj:1)
t_y122_164                                          1 	(obj:1)
t_y41_164                                           1 	(obj:1)
t_y84_125                                           1 	(obj:1)
t_y170_199                                          1 	(obj:1)
t_y43_199                                           1 	(obj:1)
t_y140_164                                          1 	(obj:1)
t_y62_164                                           1 	(obj:1)
t_y43_146                                           1 	(obj:1)
t_y125_172                                          1 	(obj:1)
t_y108_164                                          1 	(obj:1)
t_y125_190                                          1 	(obj:1)
t_y125_176                                          1 	(obj:1)
t_y43_193                                           1 	(obj:1)
t_y43_63                                            1 	(obj:1)
t_y122_125                                          1 	(obj:1)
t_y150_170                                          1 	(obj:1)
t_y158_164                                          1 	(obj:1)
t_y51_164                                           1 	(obj:1)
t_y153_170                                          1 	(obj:1)
t_y12_170                                           1 	(obj:1)
t_y43_179                                           1 	(obj:1)
t_y64_164                                           1 	(obj:1)
t_y87_125                                           1 	(obj:1)
t_y33_43                                            1 	(obj:1)
t_y100_125                                          1 	(obj:1)
t_y125_196                                          1 	(obj:1)
t_y43_171                                           1 	(obj:1)
t_y76_164                                           1 	(obj:1)
t_y43_121                                           1 	(obj:1)
t_y47_125                                           1 	(obj:1)
t_y158_170                                          1 	(obj:1)
t_y43_101                                           1 	(obj:1)
t_y32_125                                           1 	(obj:1)
t_y85_170                                           1 	(obj:1)
t_y67_125                                           1 	(obj:1)
t_y125_175                                          1 	(obj:1)
t_y43_132                                           1 	(obj:1)
